0 1 -1
0 1144 1
0 1188 1
2 1121 -1
2 1955 -1
2 1956 1
2 8 -1
3 251 1
3 7 -1
3 28 -1
4 7 1
4 1963 1
4 6 1
4 5 1
5 10 1
5 9 1
5 6 1
6 15 -1
7 10 1
7 28 -1
8 1743 1
8 27 -1
8 44 -1
9 1955 1
9 10 1
9 27 1
10 1956 -1
11 22 1
11 254 1
11 1960 -1
11 1961 -1
11 29 -1
12 1960 -1
13 1961 1
14 1965 1
14 1870 -1
14 1969 1
15 1855 1
15 1965 -1
15 1963 1
16 1969 -1
16 1290 1
16 1971 1
17 1996 -1
18 1983 -1
18 1990 1
18 1985 -1
19 1991 1
19 1997 1
19 41 1
19 42 1
20 1973 -1
20 1975 -1
20 1977 -1
20 1978 -1
21 1966 -1
21 1962 1
21 22 -1
22 28 1
22 1966 1
22 1963 1
23 24 1
23 1320 -1
23 1324 1
24 1319 -1
24 1509 -1
25 26 1
25 31 -1
25 860 -1
26 1549 -1
26 1581 1
27 1955 -1
27 1855 -1
28 256 -1
29 256 1
29 831 -1
29 832 -1
30 1961 -1
31 1030 1
31 1031 1
31 48 1
32 1999 -1
32 1869 -1
32 33 1
32 34 1
33 1998 1
33 43 -1
34 1999 -1
34 1943 1
35 45 1
35 183 -1
35 36 1
36 185 1
36 810 -1
37 1957 1
38 1974 -1
39 1921 -1
39 40 1
39 163 1
45 46 -1
45 810 1
46 906 -1
46 907 1
46 183 -1
47 1327 1
48 1031 1
49 1941 1
50 51 1
50 55 -1
50 1435 1
50 1437 -1
51 52 1
51 1437 1
51 1457 -1
52 55 1
52 1437 1
52 53 -1
53 1436 -1
53 1440 -1
53 1456 -1
54 1928 -1
55 1437 1
55 192 1
56 497 -1
56 488 1
56 505 1
57 1913 -1
57 1813 1
57 1930 1
58 129 1
59 60 1
60 61 1
60 62 -1
62 67 1
62 387 1
63 64 -1
63 65 1
63 71 -1
64 170 -1
65 71 -1
65 186 1
66 67 -1
66 68 -1
66 77 -1
67 129 1
67 135 1
68 186 -1
69 72 -1
69 70 1
69 73 -1
70 133 1
70 131 -1
70 134 1
71 72 -1
71 80 -1
72 131 1
72 140 -1
73 74 1
73 75 1
74 134 1
74 75 1
75 206 1
76 77 -1
76 78 -1
76 81 -1
77 78 1
78 135 -1
79 80 -1
79 140 -1
79 81 -1
80 775 -1
81 139 -1
82 83 1
83 84 1
83 89 1
84 167 -1
84 168 1
84 150 -1
85 86 1
85 87 1
85 88 1
85 94 -1
86 139 -1
86 190 1
87 427 -1
87 454 -1
87 463 -1
88 165 -1
88 195 -1
88 255 -1
89 90 1
89 91 1
90 150 1
90 148 -1
90 149 1
91 92 -1
91 217 -1
92 93 -1
93 96 -1
94 95 1
94 160 -1
95 255 1
96 97 -1
96 98 1
98 99 -1
98 142 -1
99 148 1
99 156 1
100 102 -1
100 875 1
100 1105 -1
100 1108 1
101 701 1
101 103 -1
102 210 1
102 211 -1
102 1108 -1
103 460 -1
103 459 -1
104 398 1
104 460 -1
104 257 -1
105 157 1
105 106 -1
105 159 1
105 161 -1
106 107 1
106 865 1
108 550 1
109 154 -1
110 111 -1
110 266 1
110 375 -1
110 376 1
111 266 -1
111 684 1
112 1374 1
112 113 -1
112 1858 -1
113 1374 1
113 1952 -1
113 1949 1
114 1832 -1
114 1857 1
114 1858 1
115 982 -1
116 790 1
117 1441 -1
117 1836 1
118 119 -1
118 981 -1
118 1096 -1
119 953 -1
119 175 -1
120 121 1
120 182 -1
121 1491 1
121 1947 -1
122 668 -1
122 665 1
122 667 1
122 706 -1
123 1162 -1
123 1183 1
123 228 1
124 1163 1
124 1206 -1
125 1061 -1
125 1952 1
126 1463 1
126 1793 -1
127 1473 -1
127 1923 -1
127 249 1
128 1487 -1
128 1923 -1
129 130 -1
131 132 1
132 170 -1
132 169 -1
132 171 -1
133 134 -1
133 169 1
135 136 -1
135 137 -1
136 391 1
136 138 -1
137 138 1
137 139 1
138 405 -1
138 588 1
139 140 -1
140 167 1
141 145 -1
141 142 1
141 144 1
143 846 1
143 1411 -1
143 1413 -1
143 281 -1
144 145 -1
144 155 1
146 210 -1
146 1048 1
146 147 1
147 210 -1
147 215 -1
147 668 1
148 156 -1
148 157 -1
148 1036 1
148 1037 1
148 152 -1
149 150 -1
149 158 -1
149 165 1
150 166 1
151 154 1
153 863 1
154 155 1
155 156 -1
155 1040 -1
156 861 1
157 158 1
157 1036 1
158 159 -1
158 271 -1
159 161 -1
159 198 -1
160 162 1
160 164 1
160 209 -1
161 164 -1
161 1112 1
162 215 -1
162 619 1
162 653 1
164 212 -1
164 213 -1
165 166 1
166 193 1
166 194 -1
167 191 1
168 206 1
168 207 1
168 208 -1
170 171 1
172 1706 1
173 174 -1
173 981 -1
174 1073 1
176 936 -1
176 177 -1
176 178 -1
179 180 1
179 1948 1
179 182 -1
180 932 1
181 908 -1
181 919 1
181 189 1
182 1947 1
183 922 -1
183 1053 1
184 188 -1
184 1053 1
184 187 -1
185 187 -1
185 810 -1
187 1051 1
188 901 -1
188 1051 1
189 1060 -1
192 1436 -1
192 199 1
195 196 -1
195 255 1
196 197 1
196 200 -1
198 200 -1
198 201 -1
199 844 1
199 1837 1
200 271 -1
202 1576 -1
202 203 -1
202 204 -1
203 819 1
203 205 1
204 205 -1
205 819 1
206 207 -1
209 210 -1
209 211 1
209 215 1
210 211 1
211 213 -1
213 214 -1
215 654 -1
216 785 -1
218 1013 1
219 1013 1
220 1014 -1
221 707 1
222 707 -1
223 706 1
224 762 -1
225 1050 -1
226 708 1
227 1746 -1
229 1163 -1
230 1346 -1
230 1334 -1
230 1354 -1
230 1355 -1
231 1330 1
231 1931 1
231 232 -1
231 233 -1
232 1329 1
232 1334 1
234 1399 1
234 1403 1
234 1795 1
235 281 -1
235 1395 -1
235 1797 1
235 236 1
236 1413 -1
236 1797 1
237 1364 -1
238 1336 1
238 1344 1
238 1350 -1
239 1474 -1
239 1791 -1
239 1485 1
239 1486 1
240 1475 -1
240 1500 -1
240 242 1
241 1477 -1
241 242 -1
241 1503 -1
241 247 1
242 1478 1
242 243 -1
243 1500 1
243 1503 1
243 1502 -1
244 245 1
244 1497 1
244 1504 -1
245 246 -1
245 248 1
246 1481 1
246 247 -1
246 1926 1
247 248 1
248 1504 -1
250 1515 1
252 253 -1
253 1966 1
253 1967 -1
254 256 -1
254 759 1
256 1954 -1
258 409 1
259 1862 -1
259 260 1
259 261 1
261 262 1
261 263 -1
261 264 -1
265 515 1
265 267 1
265 270 1
266 365 -1
266 366 1
266 367 -1
268 1751 -1
268 1901 1
269 1899 -1
272 273 1
272 567 -1
272 573 -1
272 843 -1
274 867 1
274 343 1
274 771 1
275 276 1
276 1319 1
276 1283 1
277 564 1
277 695 -1
277 589 -1
278 861 -1
279 1040 -1
280 1511 1
281 1412 -1
281 282 -1
282 1391 1
282 1395 1
283 1761 1
283 284 -1
283 285 -1
286 287 1
286 312 -1
286 468 -1
286 472 -1
287 472 1
287 478 1
287 624 1
288 303 1
289 290 1
289 302 -1
289 291 1
290 669 -1
291 296 -1
291 300 1
292 293 -1
292 297 -1
292 294 -1
293 669 1
293 294 -1
294 777 -1
295 310 1
296 301 -1
297 300 1
297 298 1
297 546 1
298 669 -1
298 838 -1
299 303 -1
299 308 1
300 301 -1
300 305 -1
301 302 -1
301 306 1
302 303 -1
302 304 1
303 314 -1
304 305 -1
305 306 -1
305 543 1
307 316 -1
308 314 -1
308 535 1
309 316 1
310 311 1
310 329 1
310 533 -1
311 657 1
312 455 -1
312 468 1
313 532 1
314 535 1
315 657 1
316 323 1
317 318 1
317 324 1
317 778 -1
318 776 -1
318 821 -1
319 320 1
319 342 -1
319 556 -1
320 537 -1
321 323 1
321 322 1
321 541 1
322 535 -1
322 674 -1
323 534 -1
323 536 -1
324 325 -1
324 326 1
324 677 1
325 777 1
325 546 -1
326 333 -1
326 675 1
327 328 -1
327 884 -1
327 1737 -1
329 332 1
329 353 1
330 332 -1
330 331 1
330 551 1
332 532 1
332 554 1
333 334 -1
333 369 1
333 840 -1
334 778 1
335 336 1
335 742 1
335 645 1
337 571 1
337 748 1
338 369 1
338 339 1
338 343 -1
339 675 1
339 867 1
340 342 -1
340 341 1
340 363 1
340 604 1
341 553 1
341 688 -1
342 537 1
342 364 -1
344 345 1
344 354 1
344 368 -1
345 558 -1
346 568 -1
346 347 -1
346 359 -1
347 750 -1
347 751 -1
348 569 -1
348 566 1
349 350 -1
349 351 -1
349 358 -1
350 351 1
352 353 -1
352 354 1
352 355 -1
353 539 -1
353 554 -1
355 368 -1
355 356 1
357 359 -1
357 358 -1
357 670 1
358 834 1
359 647 1
359 648 1
360 361 1
360 362 -1
360 374 1
361 648 -1
361 670 -1
361 833 1
363 364 1
363 373 1
363 382 -1
364 556 1
364 557 -1
365 526 1
365 558 1
365 559 1
366 367 1
366 381 1
366 383 -1
367 526 -1
367 528 -1
368 372 1
369 377 -1
369 575 -1
370 371 1
370 380 1
370 385 1
371 603 1
371 687 1
372 376 -1
372 379 1
373 374 1
373 382 1
373 649 -1
374 697 1
375 376 1
375 383 1
375 584 -1
376 660 1
377 378 1
377 595 1
378 592 -1
378 590 1
378 591 1
379 380 -1
379 384 1
380 384 -1
382 386 1
383 393 -1
383 400 1
384 658 1
385 386 1
385 398 1
386 603 1
386 602 -1
387 388 -1
387 391 1
388 694 1
388 696 -1
389 456 -1
389 393 1
389 390 1
389 403 -1
390 528 -1
390 393 -1
390 579 1
391 392 -1
392 587 1
392 588 -1
392 589 -1
393 400 1
394 395 1
394 396 1
394 582 1
395 583 1
395 712 1
396 397 1
396 401 -1
398 409 -1
399 400 1
399 410 -1
399 418 1
400 411 1
401 402 -1
401 407 1
402 635 -1
402 634 1
402 436 -1
403 404 -1
403 419 1
404 724 1
404 726 -1
405 429 1
405 406 1
407 435 -1
407 721 1
408 409 1
408 413 -1
408 458 1
410 411 1
410 442 1
411 581 1
411 582 1
412 413 -1
412 414 1
412 424 -1
413 602 1
413 612 -1
414 620 -1
414 609 -1
414 652 1
415 416 -1
415 422 -1
415 605 1
416 595 1
416 594 -1
416 598 1
417 456 -1
417 418 -1
418 720 1
419 420 -1
419 423 1
420 578 1
420 740 1
421 423 -1
421 422 1
421 432 1
422 423 -1
422 606 -1
423 467 -1
425 430 1
425 426 1
425 433 -1
426 459 1
426 700 1
427 428 1
427 429 -1
429 608 -1
429 609 -1
430 436 1
430 433 1
431 432 1
431 466 -1
431 735 -1
432 727 -1
433 449 1
434 436 -1
434 435 1
434 444 1
435 714 -1
436 633 -1
437 467 -1
437 438 1
437 476 1
439 633 -1
439 440 -1
439 618 1
439 664 -1
439 708 -1
440 449 -1
440 618 -1
441 442 -1
441 443 1
441 452 1
442 719 1
443 640 1
443 453 1
443 641 -1
444 447 -1
444 451 1
445 447 -1
445 453 1
445 446 1
447 715 -1
448 450 1
448 457 1
448 449 -1
448 618 -1
449 701 1
450 458 1
450 702 -1
451 525 1
451 639 -1
452 464 1
452 453 1
452 470 -1
453 486 1
454 620 1
454 621 1
454 622 -1
455 456 -1
455 474 -1
457 458 -1
457 612 -1
457 618 1
458 701 1
459 659 1
459 460 -1
460 659 -1
461 463 1
461 462 -1
461 469 1
462 621 1
463 469 -1
464 468 -1
464 465 -1
466 467 -1
466 482 -1
467 610 1
468 478 1
469 473 1
470 471 1
470 479 1
472 474 -1
473 619 -1
473 475 1
474 476 -1
476 477 -1
476 487 1
477 484 1
477 498 1
479 485 1
479 508 -1
480 481 1
480 686 1
480 828 1
481 760 1
481 761 1
482 483 -1
482 499 -1
484 490 -1
484 492 -1
485 486 -1
485 510 -1
486 639 1
486 1742 1
487 627 1
487 491 1
488 489 1
488 494 1
489 494 -1
489 505 1
490 491 -1
490 493 -1
491 492 1
492 627 1
492 617 -1
494 497 -1
495 502 -1
495 496 -1
495 514 -1
496 735 1
496 736 1
497 498 1
498 615 1
498 616 1
499 500 1
499 506 -1
501 502 -1
501 503 1
501 529 -1
502 606 -1
502 629 -1
503 686 1
503 691 -1
504 507 1
504 505 -1
504 1129 -1
506 507 -1
506 509 -1
506 636 1
507 610 -1
507 636 -1
509 515 1
509 1116 1
510 511 -1
510 717 1
512 630 1
512 644 -1
512 513 1
513 708 1
513 709 1
514 515 -1
514 516 -1
516 728 -1
516 732 1
517 518 1
517 704 -1
517 762 -1
518 706 1
518 707 1
519 520 1
519 527 -1
519 1323 1
520 911 -1
520 1061 1
521 522 -1
521 1133 -1
521 1746 -1
522 762 1
522 763 1
523 525 -1
523 524 1
523 656 -1
524 630 -1
524 764 -1
525 710 1
526 560 -1
526 561 1
527 1322 -1
527 1339 -1
527 1772 -1
528 561 1
528 771 -1
529 1121 1
529 530 1
530 732 -1
530 733 1
531 534 1
532 533 -1
534 535 -1
536 538 -1
536 541 1
537 553 -1
538 539 1
538 540 1
539 657 1
540 541 -1
540 542 1
540 682 -1
541 542 -1
542 548 -1
543 544 -1
543 545 -1
543 548 -1
544 546 -1
544 676 -1
546 547 1
548 549 -1
548 561 1
549 550 1
549 555 1
550 676 1
550 867 1
551 553 1
551 552 1
551 688 1
552 554 -1
552 603 -1
553 690 1
555 771 -1
555 561 1
556 692 -1
560 680 -1
560 681 1
562 567 1
562 574 1
562 563 -1
562 565 1
563 567 1
563 671 1
563 769 1
564 573 1
564 565 1
565 574 -1
565 693 1
566 570 1
566 757 1
566 671 1
567 672 1
568 571 -1
568 569 1
568 570 -1
569 570 -1
569 756 1
570 755 1
571 572 -1
571 754 -1
572 753 -1
573 574 -1
573 694 -1
575 576 -1
575 577 1
575 578 1
576 578 1
576 594 -1
577 770 -1
578 579 -1
579 580 1
579 724 -1
581 582 -1
581 713 -1
582 585 1
583 584 -1
583 585 -1
583 586 1
585 713 1
587 601 -1
587 648 -1
587 649 1
588 601 1
589 696 1
590 678 -1
590 679 -1
591 595 1
591 593 -1
592 840 -1
593 596 1
593 597 1
594 595 -1
596 597 1
596 599 -1
597 598 1
598 599 1
599 607 -1
600 601 1
600 602 -1
600 609 1
601 609 -1
603 604 -1
604 698 1
605 606 1
605 607 -1
605 738 1
607 794 1
610 611 -1
611 615 1
612 620 1
612 614 -1
613 614 -1
614 703 1
619 621 -1
619 653 1
620 653 1
623 624 -1
623 625 -1
623 626 1
623 1754 -1
624 625 -1
624 627 1
625 1131 1
626 627 1
626 628 1
626 1132 1
629 732 -1
630 633 1
630 632 1
631 632 1
631 643 1
631 1147 -1
632 644 1
632 656 -1
634 658 1
634 711 -1
635 660 -1
636 1751 -1
636 1901 1
637 638 1
637 642 -1
637 1753 -1
638 1132 -1
638 642 -1
639 716 1
640 721 -1
640 723 -1
642 1159 -1
643 644 -1
643 1120 1
643 1142 1
644 664 -1
645 765 1
645 647 -1
645 747 -1
646 765 -1
647 743 -1
648 769 -1
649 699 1
650 911 1
650 1061 1
650 651 -1
650 661 -1
650 663 -1
650 1294 -1
651 663 -1
651 1035 1
653 654 1
653 655 1
653 666 1
654 668 1
654 665 1
655 664 -1
655 666 1
655 703 1
656 1742 1
656 1134 1
658 660 -1
658 659 1
661 662 -1
662 913 1
663 1287 1
664 667 1
665 666 -1
665 667 1
668 1127 1
672 673 -1
672 758 -1
673 757 1
675 677 1
676 677 1
677 867 1
678 779 -1
678 783 1
680 682 -1
680 683 1
682 685 -1
686 734 1
688 689 -1
694 695 1
704 705 -1
704 1118 -1
717 718 1
717 1122 -1
721 722 1
724 725 1
728 729 1
728 1115 -1
730 731 -1
730 1174 -1
730 1862 1
731 1164 1
731 1905 1
735 737 1
738 739 -1
738 760 -1
741 765 -1
741 766 -1
742 744 -1
742 743 -1
742 745 -1
746 747 -1
746 749 1
747 752 1
748 749 1
748 750 -1
749 751 -1
750 751 -1
753 765 -1
755 769 1
757 758 1
760 806 -1
760 808 -1
766 767 -1
766 768 -1
768 833 1
768 836 1
770 771 1
772 773 1
772 774 1
772 1263 1
773 1239 1
773 1247 1
776 777 -1
779 840 1
779 841 1
780 781 1
780 784 1
780 786 1
781 822 1
782 783 -1
782 786 1
782 788 1
783 842 1
784 785 -1
784 791 1
785 823 -1
786 791 -1
787 790 1
789 790 1
790 825 1
791 792 -1
792 794 1
792 800 1
793 794 1
793 795 1
794 827 -1
795 797 1
796 799 -1
797 799 1
797 801 -1
797 802 -1
798 799 1
798 801 1
801 802 1
801 803 1
802 804 1
802 805 -1
805 849 -1
805 854 -1
806 852 -1
806 853 -1
807 815 1
807 808 1
807 809 1
807 811 -1
808 851 1
809 849 1
809 856 1
811 813 -1
811 830 -1
812 813 1
812 814 -1
813 816 -1
813 815 -1
814 815 1
814 817 1
815 828 -1
816 830 -1
817 818 1
817 1956 1
819 1634 1
820 1595 -1
820 1601 1
822 823 -1
823 824 1
823 825 -1
825 826 -1
826 827 -1
828 829 -1
828 1121 1
830 848 -1
831 832 -1
833 839 -1
834 835 1
834 837 1
835 836 1
836 839 1
837 839 1
844 845 1
845 1435 -1
845 1839 1
846 847 1
846 1838 1
847 1835 -1
847 1909 1
849 850 -1
852 859 -1
853 857 1
854 855 -1
854 859 -1
857 858 1
860 1030 -1
860 1604 1
861 873 -1
861 1040 -1
862 868 1
862 863 1
862 864 -1
863 1036 1
865 866 1
865 868 -1
868 1101 1
868 1103 -1
868 1110 1
868 1113 1
868 1114 1
869 870 1
869 872 -1
869 883 -1
870 1101 -1
870 1113 1
870 876 1
871 872 -1
872 1102 1
872 1099 1
873 1038 1
873 877 -1
874 875 1
874 876 1
874 878 -1
875 1048 -1
875 1105 -1
876 1103 -1
876 1104 1
878 881 1
878 882 1
879 881 -1
879 880 1
879 890 -1
881 1046 1
881 1043 -1
883 886 -1
883 887 1
884 885 -1
884 888 1
884 1050 1
886 887 1
886 892 1
887 1054 -1
888 1049 1
888 1748 -1
889 890 1
889 891 -1
889 903 -1
889 1034 1
890 891 -1
890 904 1
891 1050 1
891 1049 1
892 893 1
892 899 1
894 895 -1
895 1054 -1
895 1056 -1
895 1086 1
896 897 -1
896 900 -1
897 1083 -1
898 899 -1
898 900 -1
898 901 -1
899 1084 -1
899 1085 -1
900 1107 -1
901 902 -1
903 904 1
903 1064 -1
904 1043 -1
904 1045 -1
905 906 1
905 907 1
905 909 1
906 1055 -1
906 1051 -1
907 910 -1
907 922 1
908 909 1
908 915 1
909 916 1
909 1060 1
910 914 1
910 920 1
911 1287 -1
912 1061 -1
912 913 1
912 1952 -1
913 1358 -1
914 916 1
914 1059 -1
915 916 1
915 917 1
916 1059 -1
917 1024 1
918 919 1
918 923 1
918 925 -1
919 1058 1
920 922 1
920 921 1
921 1059 -1
921 1057 -1
921 1058 1
923 926 -1
924 925 -1
924 1106 -1
925 1106 -1
926 927 -1
927 929 -1
927 948 1
928 943 -1
929 930 -1
929 936 -1
930 1064 1
930 1087 -1
930 1065 1
931 932 1
931 938 1
931 960 1
931 1077 -1
932 938 1
933 934 -1
933 1306 1
935 936 1
935 937 1
935 954 1
937 1062 -1
937 946 1
938 1063 1
938 1066 1
939 940 -1
939 949 1
939 966 -1
940 966 -1
940 1095 -1
941 947 1
941 943 -1
941 942 -1
943 1052 -1
943 1068 1
944 945 -1
944 967 1
944 1092 1
945 957 1
945 958 1
947 948 -1
947 988 -1
947 1071 -1
948 1013 1
949 950 1
949 965 1
950 1063 -1
950 1090 -1
950 1091 -1
951 953 -1
951 952 -1
951 1026 1
952 1028 -1
952 1070 1
953 954 -1
953 1073 -1
954 1027 1
955 1025 1
955 966 -1
955 1095 -1
955 956 -1
956 1095 1
956 1092 -1
957 1062 1
957 1072 -1
957 1073 1
959 960 -1
959 965 1
959 969 1
960 1077 -1
960 1078 -1
961 1078 1
961 962 -1
962 1077 -1
962 1491 -1
963 964 -1
963 1544 -1
963 1592 -1
965 967 -1
965 984 -1
966 1091 -1
967 968 -1
968 970 1
969 973 -1
969 977 -1
970 1072 -1
971 973 1
971 972 -1
971 983 -1
972 983 -1
973 1078 -1
973 989 -1
974 975 -1
974 1006 1
975 989 1
975 976 -1
975 1076 1
976 986 1
976 992 -1
976 1076 -1
977 986 -1
977 989 1
978 979 -1
978 993 1
978 991 -1
979 1070 1
979 985 1
979 998 -1
980 982 -1
980 985 1
980 981 -1
982 1072 -1
984 986 1
984 992 -1
985 998 -1
985 1096 -1
987 988 -1
987 990 1
987 991 1
988 1097 -1
989 1934 -1
994 997 1
995 1560 -1
995 1889 -1
996 998 -1
996 997 -1
996 999 1
997 1079 -1
997 1080 -1
998 1069 1
999 1002 -1
999 1003 1
1000 1075 -1
1000 1002 -1
1000 1001 -1
1002 1069 1
1002 1074 1
1004 1082 -1
1005 1082 -1
1006 1075 -1
1007 1008 1
1007 1021 -1
1007 1310 1
1008 1009 1
1008 1010 1
1009 1018 -1
1009 1019 -1
1011 1012 -1
1011 1143 1
1011 1150 1
1011 1152 1
1013 1014 -1
1014 1936 -1
1015 1018 1
1015 1016 1
1015 1017 1
1018 1023 1
1019 1021 -1
1019 1020 -1
1021 1022 -1
1022 1184 1
1022 1208 1
1022 1763 -1
1024 1057 1
1025 1062 1
1025 1092 1
1026 1027 1
1028 1071 -1
1028 1029 -1
1028 1070 1
1030 1031 1
1032 1035 -1
1032 1033 -1
1032 1266 1
1033 1034 1
1033 1195 -1
1035 1200 1
1035 1748 -1
1036 1037 -1
1037 1100 1
1038 1040 -1
1038 1039 1
1039 1041 -1
1041 1042 1
1041 1067 -1
1042 1100 1
1042 1099 -1
1042 1083 1
1043 1044 -1
1043 1045 -1
1045 1064 -1
1046 1048 1
1046 1047 -1
1046 1127 1
1049 1050 1
1051 1055 1
1052 1058 1
1052 1053 -1
1053 1058 1
1054 1094 1
1055 1086 -1
1055 1060 -1
1057 1059 1
1060 1087 -1
1062 1065 1
1063 1773 -1
1063 1369 -1
1064 1065 1
1065 1089 -1
1066 1945 1
1066 1948 1
1067 1083 -1
1069 1072 -1
1070 1071 1
1074 1075 1
1074 1082 -1
1075 1076 1
1081 1082 -1
1083 1084 -1
1085 1086 1
1086 1087 -1
1087 1088 1
1089 1090 1
1089 1091 1
1089 1317 1
1090 1316 -1
1090 1773 -1
1093 1097 1
1097 1098 1
1099 1100 -1
1100 1102 1
1101 1103 -1
1102 1113 1
1104 1114 -1
1105 1109 1
1105 1111 -1
1108 1112 -1
1109 1112 1
1109 1110 -1
1109 1111 -1
1110 1112 1
1111 1114 -1
1115 1117 -1
1115 1161 -1
1118 1119 1
1118 1124 1
1119 1133 1
1119 1126 -1
1120 1125 -1
1120 1146 -1
1122 1123 1
1122 1131 -1
1122 1739 -1
1124 1133 1
1126 1127 1
1126 1748 1
1127 1748 -1
1128 1129 1
1128 1132 1
1128 1136 -1
1129 1137 1
1130 1131 1
1131 1738 -1
1134 1135 1
1134 1147 1
1138 1139 1
1138 1903 1
1139 1860 1
1140 1142 1
1140 1141 -1
1140 1143 1
1142 1746 1
1142 1747 1
1143 1151 -1
1144 1145 -1
1144 1179 1
1145 1167 1
1145 1739 1
1145 1741 -1
1146 1147 -1
1146 1182 1
1147 1749 -1
1148 1736 1
1148 1149 -1
1148 1178 -1
1149 1903 1
1150 1151 -1
1150 1152 1
1152 1162 1
1153 1160 1
1153 1154 -1
1153 1155 -1
1154 1854 1
1154 1904 -1
1155 1855 -1
1155 1965 -1
1156 1157 1
1156 1169 -1
1156 1170 -1
1157 1755 1
1157 1753 -1
1157 1752 1
1158 1159 1
1158 1171 1
1158 1192 1
1158 1897 -1
1159 1753 -1
1159 1752 -1
1159 1859 -1
1160 1161 1
1160 1165 1
1161 1852 1
1161 1853 1
1162 1163 1
1162 1206 -1
1164 1165 -1
1164 1191 1
1165 1756 -1
1165 1870 1
1166 1179 1
1166 1167 1
1166 1168 1
1166 1735 1
1167 1754 1
1167 1755 1
1168 1169 -1
1168 1201 -1
1169 1929 1
1170 1171 1
1170 1201 1
1171 1752 1
1171 1847 1
1172 1173 1
1172 1175 1
1172 1180 -1
1174 1863 -1
1174 1864 -1
1176 1178 -1
1176 1177 1
1176 1198 -1
1177 1851 -1
1177 1178 -1
1177 1861 1
1178 1859 1
1179 1184 -1
1180 1186 1
1180 1181 1
1182 1183 1
1182 1185 1
1183 1185 1
1184 1187 -1
1185 1216 1
1185 1927 -1
1186 1195 -1
1186 1194 1
1187 1735 1
1188 1189 1
1188 1199 -1
1188 1221 -1
1189 1299 -1
1189 1749 1
1189 1761 1
1190 1191 1
1190 1272 1
1190 1969 -1
1191 1864 -1
1191 1870 -1
1192 1193 -1
1192 1228 -1
1194 1195 -1
1194 1209 -1
1196 1198 1
1196 1197 -1
1196 1212 -1
1196 1237 -1
1197 1780 -1
1197 1778 1
1197 1872 -1
1198 1213 -1
1198 1780 -1
1199 1202 1
1199 1208 1
1200 1252 -1
1200 1253 -1
1200 1300 -1
1200 1315 -1
1201 1256 1
1202 1214 1
1202 1217 1
1203 1204 -1
1203 1210 -1
1203 1262 -1
1204 1864 -1
1204 1865 1
1204 1273 -1
1205 1206 -1
1205 1207 1
1205 1215 -1
1208 1236 -1
1210 1211 -1
1210 1297 -1
1211 1865 -1
1211 1779 -1
1212 1213 -1
1212 1218 -1
1213 1228 -1
1213 1848 1
1215 1216 -1
1215 1222 1
1216 1219 1
1216 1928 -1
1217 1221 1
1217 1220 -1
1218 1227 -1
1218 1307 -1
1219 1222 -1
1219 1225 -1
1221 1223 -1
1222 1234 1
1223 1226 -1
1223 1224 1
1225 1229 1
1225 1234 1
1226 1239 -1
1226 1231 1
1227 1228 1
1227 1241 1
1228 1847 -1
1229 1253 1
1229 1230 1
1231 1247 -1
1231 1232 -1
1232 1233 -1
1232 1277 1
1233 1236 -1
1233 1243 -1
1234 1252 1
1234 1235 -1
1236 1243 -1
1237 1238 1
1237 1245 1
1238 1872 1
1239 1240 1
1241 1242 -1
1241 1251 1
1242 1900 1
1242 1758 -1
1243 1278 -1
1244 1245 -1
1244 1246 -1
1244 1254 -1
1245 1767 -1
1245 1873 1
1246 1873 -1
1247 1269 1
1248 1249 1
1248 1257 1
1248 1258 1
1248 1267 -1
1249 1735 1
1249 1845 -1
1249 1846 1
1250 1255 -1
1250 1251 -1
1250 1286 1
1251 1757 -1
1251 1758 1
1252 1253 -1
1254 1296 -1
1254 1260 1
1255 1256 1
1255 1261 -1
1256 1847 -1
1256 1846 -1
1257 1258 1
1257 1275 1
1258 1259 -1
1259 1267 -1
1259 1276 -1
1259 1281 -1
1261 1264 1
1261 1292 1
1262 1273 -1
1262 1303 1
1263 1269 -1
1263 1270 -1
1264 1268 -1
1264 1271 -1
1265 1266 -1
1266 1287 1
1266 1306 1
1267 1268 -1
1267 1271 1
1268 1271 1
1269 1277 1
1270 1279 1
1270 1299 -1
1271 1282 1
1272 1273 1
1272 1289 1
1273 1770 -1
1274 1285 -1
1274 1275 -1
1274 1276 -1
1274 1288 -1
1275 1285 -1
1275 1276 1
1277 1278 -1
1277 1279 1
1278 1280 -1
1279 1280 1
1281 1282 -1
1281 1288 1
1282 1291 -1
1282 1782 -1
1283 1284 -1
1283 1285 1
1283 1301 -1
1284 1844 1
1284 1932 1
1286 1308 -1
1286 1326 -1
1288 1291 -1
1289 1290 -1
1289 1293 -1
1290 1769 -1
1290 1971 1
1291 1495 -1
1294 1295 -1
1294 1884 1
1296 1297 1
1296 1342 -1
1296 1422 -1
1297 1779 -1
1297 1342 1
1298 1300 1
1298 1299 -1
1298 1318 -1
1299 1760 -1
1300 1302 1
1300 1315 -1
1302 1304 -1
1302 1305 -1
1303 1340 -1
1303 1362 1
1304 1318 -1
1304 1305 -1
1305 1953 1
1306 1317 1
1307 1308 -1
1307 1393 -1
1307 1425 1
1308 1425 -1
1308 1768 1
1309 1310 1
1309 1311 1
1309 1325 -1
1310 1762 1
1310 1763 1
1311 1312 -1
1311 1325 1
1313 1315 1
1313 1314 1
1313 1332 -1
1314 1884 -1
1316 1772 1
1316 1317 -1
1318 1883 1
1319 1360 1
1320 1321 1
1320 1324 -1
1321 1324 1
1322 1323 -1
1322 1382 1
1323 1374 -1
1325 1361 -1
1327 1328 1
1327 1939 1
1327 1940 1
1328 1938 -1
1329 1330 1
1329 1336 1
1329 1346 1
1330 1953 1
1331 1332 -1
1331 1333 -1
1331 1352 1
1331 1885 1
1332 1931 -1
1333 1931 -1
1333 1334 1
1333 1355 1
1335 1359 -1
1335 1336 1
1335 1337 1
1337 1344 -1
1337 1348 -1
1338 1339 1
1338 1387 -1
1338 1856 -1
1339 1370 -1
1339 1382 1
1340 1341 -1
1340 1362 -1
1341 1342 -1
1341 1380 1
1342 1776 1
1343 1344 -1
1343 1347 -1
1343 1349 -1
1345 1346 1
1345 1350 1
1345 1354 -1
1345 1375 -1
1347 1348 1
1347 1364 1
1349 1350 -1
1349 1365 -1
1350 1366 1
1351 1356 1
1351 1352 1
1351 1353 -1
1351 1388 -1
1352 1355 1
1352 1885 1
1353 1355 1
1353 1354 -1
1353 1377 1
1356 1358 -1
1356 1357 -1
1356 1400 1
1357 1885 1
1358 1831 1
1358 1832 1
1359 1760 -1
1359 1883 1
1360 1361 -1
1360 1378 -1
1361 1844 1
1361 1775 1
1362 1770 1
1363 1364 -1
1363 1367 1
1363 1368 -1
1365 1366 1
1365 1367 1
1365 1372 1
1366 1376 -1
1367 1371 -1
1368 1371 -1
1368 1386 1
1369 1370 1
1369 1384 -1
1370 1773 1
1370 1856 1
1371 1373 -1
1372 1376 -1
1372 1373 1
1372 1389 1
1374 1387 -1
1375 1376 1
1375 1379 1
1375 1391 1
1377 1379 1
1377 1401 1
1378 1398 -1
1378 1428 -1
1379 1396 -1
1380 1546 1
1380 1381 -1
1382 1387 -1
1383 1384 1
1383 1946 -1
1383 1404 -1
1384 1946 -1
1385 1386 -1
1385 1390 -1
1385 1841 1
1386 1759 -1
1386 1390 -1
1388 1399 1
1388 1403 -1
1389 1391 1
1389 1390 1
1389 1798 1
1390 1798 -1
1391 1412 -1
1392 1393 1
1392 1472 -1
1393 1766 1
1393 1767 -1
1394 1396 -1
1394 1402 1
1394 1395 1
1396 1402 1
1397 1398 1
1397 1405 -1
1397 1406 1
1398 1775 1
1398 1433 -1
1399 1400 -1
1399 1795 1
1400 1834 -1
1401 1403 1
1401 1402 -1
1401 1409 -1
1402 1797 -1
1404 1407 -1
1404 1417 1
1405 1414 1
1405 1427 1
1406 1427 1
1406 1432 -1
1407 1416 1
1407 1417 1
1408 1909 1
1408 1413 1
1408 1409 1
1408 1410 1
1409 1410 1
1409 1797 1
1410 1834 1
1410 1795 -1
1411 1910 -1
1411 1412 1
1412 1798 -1
1414 1415 -1
1414 1421 1
1414 1430 1
1415 1839 1
1415 1841 -1
1415 1843 -1
1416 1418 1
1416 1420 1
1417 1419 -1
1418 1420 1
1418 1442 -1
1418 1794 1
1419 1420 1
1419 1445 1
1420 1444 1
1421 1429 -1
1421 1434 -1
1421 1933 -1
1422 1423 1
1422 1534 1
1424 1556 1
1424 1425 -1
1424 1519 -1
1425 1766 1
1426 1427 1
1426 1432 1
1426 1430 -1
1426 1451 -1
1428 1433 1
1428 1449 1
1429 1435 -1
1429 1434 1
1429 1454 -1
1430 1434 -1
1430 1450 1
1431 1433 1
1431 1432 1
1431 1896 -1
1432 1907 1
1433 1895 1
1434 1453 1
1435 1455 -1
1436 1441 1
1436 1835 1
1438 1440 1
1438 1439 -1
1438 1443 1
1438 1458 -1
1439 1794 -1
1439 1443 1
1439 1796 -1
1440 1441 1
1440 1459 -1
1441 1796 1
1442 1443 1
1442 1444 1
1442 1463 -1
1443 1793 -1
1444 1445 -1
1444 1461 -1
1445 1446 1
1445 1465 -1
1446 1466 -1
1446 1448 -1
1446 1447 -1
1447 1935 1
1448 1945 1
1448 1948 -1
1449 1508 1
1449 1506 1
1450 1451 -1
1450 1452 -1
1451 1907 -1
1452 1453 -1
1452 1880 -1
1453 1454 -1
1453 1468 1
1454 1455 -1
1454 1467 1
1455 1457 -1
1455 1469 -1
1456 1457 1
1456 1459 1
1456 1479 1
1457 1482 -1
1458 1459 -1
1458 1474 -1
1458 1791 -1
1459 1476 1
1460 1461 -1
1460 1464 -1
1460 1488 1
1461 1463 -1
1461 1465 -1
1462 1463 -1
1462 1791 -1
1462 1793 1
1462 1464 1
1462 1792 1
1464 1488 -1
1467 1468 1
1467 1469 1
1467 1496 -1
1467 1511 1
1469 1483 -1
1470 1491 1
1470 1471 1
1471 1934 -1
1471 1935 -1
1472 1533 -1
1473 1474 1
1473 1485 -1
1473 1487 1
1474 1476 -1
1475 1476 -1
1475 1478 1
1475 1487 1
1476 1479 1
1477 1479 -1
1477 1478 -1
1477 1481 -1
1479 1482 1
1480 1482 1
1480 1481 -1
1480 1490 1
1480 1926 -1
1483 1490 1
1483 1493 1
1484 1486 1
1484 1489 -1
1484 1485 1
1486 1792 -1
1489 1792 1
1490 1492 -1
1492 1493 1
1492 1512 -1
1494 1495 -1
1494 1505 1
1494 1531 1
1495 1509 -1
1495 1782 1
1496 1880 -1
1496 1566 -1
1496 1624 -1
1496 1894 -1
1497 1498 -1
1497 1513 -1
1498 1926 -1
1498 1512 -1
1499 1500 -1
1499 1502 1
1499 1525 1
1501 1503 -1
1501 1504 -1
1501 1502 1
1501 1515 1
1505 1521 1
1505 1530 1
1507 1509 1
1507 1508 1
1507 1520 -1
1508 1509 -1
1508 1781 -1
1510 1511 -1
1510 1512 1
1510 1516 1
1510 1528 1
1513 1514 -1
1513 1516 -1
1514 1515 -1
1514 1525 1
1514 1526 -1
1516 1527 -1
1517 1566 1
1517 1944 1
1517 1518 1
1517 1522 -1
1518 1559 -1
1518 1580 -1
1518 1893 -1
1519 1535 1
1520 1521 -1
1520 1540 -1
1521 1530 1
1521 1547 -1
1522 1559 -1
1522 1886 -1
1523 1526 -1
1523 1538 -1
1524 1525 1
1526 1538 1
1527 1529 -1
1527 1539 -1
1528 1894 -1
1528 1529 1
1529 1545 1
1530 1531 1
1530 1547 -1
1531 1535 -1
1531 1554 -1
1532 1552 -1
1532 1534 -1
1532 1533 1
1533 1582 -1
1533 1787 1
1534 1776 1
1534 1777 1
1535 1541 -1
1536 1537 1
1536 1683 -1
1537 1617 -1
1537 1919 -1
1538 1548 -1
1539 1555 1
1539 1562 1
1540 1564 1
1540 1596 -1
1541 1544 -1
1541 1592 1
1542 1546 -1
1542 1543 1
1542 1558 1
1544 1556 1
1545 1944 1
1546 1939 -1
1547 1554 -1
1548 1551 -1
1549 1550 -1
1549 1552 -1
1551 1555 1
1551 1553 -1
1552 1604 1
1553 1557 1
1554 1696 1
1555 1562 -1
1555 1563 1
1555 1892 -1
1556 1570 -1
1557 1563 -1
1559 1887 -1
1560 1561 -1
1561 1573 -1
1561 1887 1
1561 1888 -1
1562 1886 -1
1563 1575 1
1564 1596 1
1565 1566 1
1565 1574 -1
1565 1578 1
1566 1894 1
1567 1574 -1
1567 1568 -1
1567 1594 1
1569 1582 -1
1569 1570 -1
1569 1571 1
1570 1766 1
1570 1784 1
1572 1573 1
1572 1591 1
1573 1893 -1
1574 1594 -1
1576 1577 1
1576 1578 -1
1576 1593 -1
1577 1580 1
1577 1583 1
1578 1659 -1
1579 1580 -1
1579 1583 1
1579 1591 -1
1581 1582 1
1581 1612 1
1582 1589 1
1583 1587 -1
1584 1599 1
1584 1888 -1
1584 1585 1
1584 1586 -1
1585 1586 -1
1586 1937 1
1587 1593 -1
1587 1595 1
1588 1589 1
1588 1590 -1
1588 1597 -1
1589 1598 1
1589 1785 -1
1592 1603 -1
1593 1600 -1
1594 1607 -1
1595 1600 1
1596 1628 -1
1597 1598 1
1597 1610 -1
1598 1785 1
1598 1786 -1
1600 1601 -1
1602 1603 1
1603 1626 -1
1603 1696 -1
1604 1663 1
1604 1789 -1
1605 1626 -1
1605 1606 -1
1605 1609 1
1607 1621 1
1608 1609 1
1608 1613 1
1608 1803 -1
1609 1803 -1
1609 1805 -1
1610 1611 -1
1610 1639 -1
1611 1612 1
1611 1616 1
1613 1614 1
1613 1630 1
1614 1615 1
1614 1642 -1
1615 1784 1
1615 1799 1
1615 1801 -1
1616 1637 -1
1616 1649 1
1617 1811 -1
1617 1790 1
1617 1810 1
1618 1619 -1
1618 1625 -1
1618 1620 -1
1618 1631 -1
1619 1626 -1
1619 1620 1
1619 1881 -1
1620 1803 -1
1620 1804 -1
1621 1623 1
1622 1891 -1
1622 1647 -1
1623 1624 1
1623 1638 -1
1624 1913 -1
1625 1626 -1
1625 1646 -1
1627 1628 -1
1627 1629 1
1627 1816 -1
1628 1879 -1
1628 1696 -1
1629 1914 1
1629 1915 1
1630 1642 -1
1630 1802 -1
1631 1632 -1
1631 1644 -1
1632 1804 -1
1632 1802 -1
1632 1800 1
1633 1634 -1
1633 1659 -1
1633 1635 -1
1634 1889 1
1635 1891 1
1635 1641 -1
1636 1637 -1
1636 1654 1
1637 1807 1
1638 1650 -1
1639 1649 1
1639 1652 1
1640 1648 -1
1640 1641 1
1642 1645 -1
1642 1802 -1
1643 1938 -1
1643 1651 -1
1644 1646 1
1644 1653 -1
1645 1801 -1
1646 1658 -1
1647 1675 1
1648 1891 1
1649 1654 1
1649 1657 -1
1649 1807 1
1650 1666 1
1651 1924 1
1652 1655 -1
1652 1657 1
1653 1658 -1
1655 1808 -1
1656 1657 -1
1656 1671 -1
1656 1664 -1
1657 1806 -1
1658 1667 -1
1659 1666 1
1660 1661 -1
1660 1662 1
1661 1921 1
1661 1942 1
1662 1920 1
1663 1676 -1
1663 1821 1
1664 1670 1
1664 1874 -1
1665 1999 -1
1666 1930 1
1668 1670 -1
1668 1669 -1
1668 1674 1
1669 1674 1
1669 1875 -1
1669 1876 1
1670 1874 -1
1670 1877 1
1671 1682 1
1672 1675 -1
1673 1674 -1
1674 1681 1
1675 1689 -1
1676 1819 -1
1676 1917 -1
1677 1679 1
1677 1678 -1
1677 1687 1
1677 1688 1
1678 1813 -1
1679 1930 1
1679 1690 1
1680 1681 -1
1681 1874 1
1681 1682 -1
1683 1684 -1
1684 1821 -1
1685 1686 1
1686 1823 1
1687 1690 -1
1687 1720 1
1688 1693 1
1688 1711 1
1689 1690 1
1689 1704 -1
1691 1693 1
1691 1692 -1
1691 1814 -1
1693 1813 -1
1693 1812 1
1694 1698 1
1695 1696 -1
1695 1697 -1
1695 1719 -1
1697 1710 1
1697 1716 -1
1698 1707 1
1698 1722 -1
1699 1700 -1
1699 1701 1
1699 1705 -1
1700 1816 -1
1700 1817 -1
1701 1817 1
1701 1814 -1
1701 1815 -1
1702 1708 -1
1703 1704 1
1704 1911 1
1705 1706 1
1705 1716 -1
1705 1727 1
1706 1814 -1
1707 1709 1
1707 1726 1
1708 1713 1
1708 1709 1
1709 1822 1
1709 1824 -1
1710 1718 1
1711 1712 1
1711 1717 1
1714 1715 1
1714 1820 -1
1715 1821 1
1715 1819 -1
1715 1820 1
1716 1718 1
1716 1724 -1
1718 1719 1
1718 1725 1
1719 1721 1
1719 1728 -1
1720 1731 -1
1720 1826 1
1721 1722 1
1721 1730 1
1722 1729 1
1723 1726 -1
1723 1729 1
1724 1728 -1
1724 1725 1
1728 1827 1
1729 1830 1
1731 1826 1
1732 1733 -1
1733 1827 -1
1733 1825 -1
1733 1828 1
1734 1824 -1
1736 1901 1
1736 1902 -1
1738 1754 -1
1738 1739 -1
1739 1741 -1
1740 1742 -1
1740 1741 -1
1740 1749 1
1741 1742 1
1743 1854 1
1743 1744 -1
1743 1745 1
1750 1751 1
1753 1755 1
1754 1755 -1
1756 1862 1
1756 1850 1
1756 1852 -1
1758 1900 -1
1759 1760 1
1759 1765 -1
1760 1765 -1
1761 1927 1
1762 1765 -1
1762 1842 -1
1763 1764 -1
1763 1844 1
1765 1842 -1
1767 1871 1
1769 1770 -1
1769 1771 1
1769 1984 1
1770 1868 1
1771 1868 1
1772 1773 -1
1772 1774 1
1775 1842 1
1775 1843 1
1776 1789 1
1778 1906 1
1779 1872 -1
1779 1873 -1
1780 1851 -1
1780 1849 -1
1781 1783 1
1781 1879 1
1783 1895 -1
1783 1880 -1
1784 1788 1
1784 1799 1
1785 1788 1
1786 1788 1
1786 1808 1
1788 1799 1
1789 1790 -1
1789 1810 1
1790 1821 -1
1794 1796 -1
1796 1833 -1
1798 1908 -1
1799 1882 -1
1800 1801 1
1800 1822 1
1801 1878 -1
1802 1804 1
1803 1804 -1
1806 1808 -1
1806 1877 1
1809 1811 -1
1810 1918 1
1811 1940 1
1811 1919 -1
1812 1814 -1
1812 1827 1
1816 1817 1
1816 1818 1
1817 1916 -1
1819 1917 -1
1822 1823 1
1823 1876 1
1824 1830 -1
1827 1828 1
1828 1829 1
1831 1951 -1
1832 1833 -1
1833 1836 1
1833 1834 1
1834 1909 -1
1835 1836 -1
1835 1837 1
1837 1839 -1
1837 1838 1
1838 1840 1
1838 1910 1
1839 1840 -1
1840 1908 -1
1841 1912 -1
1843 1912 1
1844 1845 -1
1847 1900 -1
1848 1898 -1
1848 1899 -1
1851 1862 -1
1851 1863 1
1853 1854 1
1854 1855 -1
1856 1857 -1
1857 1858 -1
1859 1860 1
1863 1865 -1
1863 1906 1
1864 1865 -1
1866 1868 -1
1866 1867 1
1866 1869 1
1866 1941 1
1867 1990 1
1867 1992 1
1869 1922 1
1869 1993 -1
1876 1878 -1
1876 1877 -1
1877 1882 -1
1878 1882 -1
1879 1913 -1
1880 1896 -1
1883 1953 1
1887 1888 -1
1888 1937 1
1889 1890 -1
1889 1891 1
1892 1937 1
1894 1944 -1
1895 1896 -1
1908 1910 1
1920 1942 1
1921 1922 -1
1922 1925 1
1922 1942 1
1924 1925 -1
1925 1941 -1
1927 1928 -1
1935 1948 1
1935 1947 1
1938 1939 1
1945 1946 1
1949 1950 -1
1949 1951 -1
1950 1952 -1
1950 1951 -1
1955 1956 1
1957 1973 1
1957 1958 -1
1959 1960 1
1959 1961 1
1962 1964 -1
1962 1963 1
1964 1965 1
1964 1968 1
1966 1973 1
1968 1969 -1
1968 1970 1
1968 1974 -1
1970 1971 1
1970 1982 -1
1971 1984 -1
1972 1973 1
1972 1974 -1
1972 1975 -1
1975 1977 1
1975 1979 -1
1976 1977 1
1976 1978 -1
1976 1980 -1
1977 1980 1
1979 1981 -1
1979 1980 -1
1980 1987 1
1981 1982 1
1981 1986 -1
1982 1985 1
1983 1984 1
1983 1985 1
1984 1990 -1
1986 1987 1
1986 1988 1
1988 1991 1
1988 1989 -1
1990 1992 1
1991 1992 1
1991 1994 -1
1992 1994 1
1993 1994 1
1993 1996 -1
1994 1996 1
1995 1996 -1
